WARNING: for repeatability, setting FPU to use double precision
============================[ Problem Statistics ]=============================
|                                                                             |
|  Number of variables:            50                                         |
|  Number of clauses:             218                                         |
|  Parse time:                   0.00 s                                       |
|                                                                             |
============================[ Search Statistics ]==============================
| Conflicts |          ORIGINAL         |          LEARNT          | Progress |
|           |    Vars  Clauses Literals |    Limit  Clauses Lit/Cl |          |
===============================================================================
===============================================================================
restarts              : 1
conflicts             : 35             (23973 /sec)
decisions             : 48             (0.00 % random) (32877 /sec)
propagations          : 535            (366438 /sec)
conflict literals     : 146            (18.89 % deleted)
Memory used           : 20.00 MB
CPU time              : 0.00146 s

SATISFIABLE
